c WARNING: for repeatability, setting FPU to use double precision
d VARIABLES            21117        
d CONSTRAINTS          79909        
c ============================[ Problem Statistics ]=============================
c |                                                                             |
c |  Number of variables:         21117                                         |
c |  Number of clauses:           79909                                         |
c |  Parse time:                   0.01 s                                       |
c |                                                                             |
c ============================[ Search Statistics ]==============================
c | Conflicts |          ORIGINAL         |          LEARNT          | Progress |
c |           |    Vars  Clauses Literals |    Limit  Clauses Lit/Cl |          |
c ===============================================================================
c |       100 |   14322    59865   146876 |    21950      100     61 | 32.178 % |
c |       250 |   14322    59865   146876 |    24145      250     66 | 32.178 % |
c |       475 |   14322    59865   146876 |    26560      475     79 | 32.178 % |
c |       812 |   14322    59865   146876 |    29216      812     83 | 32.178 % |
c |      1318 |   14322    59865   146876 |    32137     1318    110 | 32.178 % |
c |      2077 |   14322    59865   146876 |    35351     2077    102 | 32.178 % |
c |      3216 |   14322    59865   146876 |    38886     3216     97 | 32.178 % |
c |      4924 |   14322    59865   146876 |    42775     4924     92 | 32.178 % |
c |      7486 |   14321    59855   146853 |    47052     7469     90 | 32.183 % |
c |     11330 |   14321    59855   146853 |    51758    11313     92 | 32.183 % |
c |     17096 |   14321    59855   146853 |    56933    17079     91 | 32.183 % |
c |     25745 |   14320    59846   146833 |    62627    25723     91 | 32.187 % |
c ===============================================================================
c restarts              : 94
c conflicts             : 26651          (5390 /sec)
c decisions             : 53577          (0.00 % random) (10836 /sec)
c propagations          : 27445573       (5550942 /sec)
c conflict literals     : 2362509        (52.16 % deleted)
d RESTARTS             94
d FAILURES             26651        
d NODES                53577        
d BACKTRACKS           53577        
d PROPAGATIONS         27445573     
d NOGOODSIZE           88.65 
d MEMORY               21.00 
d TIME                 4.94431 

s UNSATISFIABLE
